33D32945 STP File, STP Format Version 1.0

SECTION Comment
Name "wrp3-24-5s"
Creator "Bernd Zey"
Problem "Stochastic Steiner Tree Problem"
# Stochastic Steiner tree problem instance, base file: wrp3-24.stp
# weight-scaling on, factor=0.010000 (for "big-M" edges)
# parameters:
# distribution=equal
# selectRootRandomly=0
# probabilityTerminal=33
# probabilityNonTerminal=5
# 2nd stage edge-costs in [1.1000c_e, 1.3000c_e]
END

SECTION Graph
Nodes 262
Edges 487
Scenarios 5
Root 248
E 1 236 1
E 1 237 1
E 1 238 9
E 2 227 49
E 2 238 6
E 3 225 47
E 3 237 9
E 3 238 1
E 4 238 3
E 5 6 10
E 5 17 7
E 5 158 3
E 5 170 3
E 6 18 7
E 6 192 3
E 7 173 10
E 7 192 1
E 8 9 10
E 8 143 3
E 9 153 3
E 10 153 1
E 10 159 6
E 11 193 46
E 11 208 1
E 11 210 1
E 11 211 2
E 12 212 10
E 12 213 1
E 12 226 40
E 13 14 10
E 13 191 4
E 13 193 2
E 13 211 46
E 14 197 4
E 14 213 46
E 15 83 2
E 15 175 1
E 15 181 1
E 15 182 1
E 16 188 10
E 16 195 1
E 16 196 1
E 17 18 10
E 17 147 7
E 17 152 3
E 18 20 7
E 18 173 1
E 19 147 3
E 19 152 7
E 20 147 10
E 20 153 6
E 20 159 1
E 21 229 1
E 22 23 2
E 22 217 45
E 22 233 2
E 23 234 2
E 23 236 1
E 23 237 1
E 24 214 44
E 24 228 5
E 24 230 1
E 24 232 7
E 25 231 1
E 25 235 7
E 26 148 1
E 26 149 1
E 26 155 6
E 27 149 1
E 27 157 6
E 27 198 53
E 28 83 1
E 28 155 9
E 28 166 1
E 28 175 2
E 29 83 1
E 29 157 9
E 29 178 1
E 29 180 2
E 30 148 6
E 30 154 2
E 30 155 1
E 30 166 9
E 31 157 2
E 31 174 7
E 31 200 50
E 32 199 41
E 32 214 5
E 32 228 44
E 33 203 40
E 33 215 1
E 33 216 2
E 34 39 7
E 34 138 1
E 34 139 1
E 34 140 6
E 35 140 5
E 35 141 1
E 35 142 1
E 35 145 6
E 36 138 6
E 36 140 1
E 36 141 5
E 37 139 6
E 37 140 1
E 37 142 5
E 38 43 7
E 38 133 1
E 38 134 1
E 38 135 5
E 39 135 6
E 39 136 1
E 39 137 1
E 40 133 5
E 40 135 1
E 40 136 6
E 41 134 5
E 41 135 1
E 41 137 6
E 42 47 7
E 42 128 1
E 42 129 1
E 42 130 6
E 43 130 5
E 43 131 1
E 43 132 1
E 44 128 6
E 44 130 1
E 44 131 5
E 45 129 6
E 45 130 1
E 45 132 5
E 46 51 7
E 46 123 1
E 46 124 1
E 46 125 5
E 47 125 6
E 47 126 1
E 47 127 1
E 48 123 5
E 48 125 1
E 48 126 6
E 49 124 5
E 49 125 1
E 49 127 6
E 50 55 7
E 50 118 1
E 50 119 1
E 50 120 6
E 51 120 5
E 51 121 1
E 51 122 1
E 52 118 6
E 52 120 1
E 52 121 5
E 53 119 6
E 53 120 1
E 53 122 5
E 54 59 7
E 54 113 1
E 54 114 1
E 54 115 5
E 55 115 6
E 55 116 1
E 55 117 1
E 56 113 5
E 56 115 1
E 56 116 6
E 57 114 5
E 57 115 1
E 57 117 6
E 58 63 7
E 58 108 1
E 58 109 1
E 58 110 6
E 59 110 5
E 59 111 1
E 59 112 1
E 60 108 6
E 60 110 1
E 60 111 5
E 61 109 6
E 61 110 1
E 61 112 5
E 62 67 7
E 62 103 1
E 62 104 1
E 62 105 5
E 63 105 6
E 63 106 1
E 63 107 1
E 64 103 5
E 64 105 1
E 64 106 6
E 65 104 5
E 65 105 1
E 65 107 6
E 66 71 7
E 66 98 1
E 66 99 1
E 66 100 6
E 67 100 5
E 67 101 1
E 67 102 1
E 68 98 6
E 68 100 1
E 68 101 5
E 69 99 6
E 69 100 1
E 69 102 5
E 70 75 7
E 70 93 1
E 70 94 1
E 70 95 5
E 71 95 6
E 71 96 1
E 71 97 1
E 72 93 5
E 72 95 1
E 72 96 6
E 73 94 5
E 73 95 1
E 73 97 6
E 74 79 7
E 74 88 1
E 74 89 1
E 74 90 6
E 75 90 5
E 75 91 1
E 75 92 1
E 76 88 6
E 76 90 1
E 76 91 5
E 77 89 6
E 77 90 1
E 77 92 5
E 78 84 1
E 78 85 5
E 79 85 6
E 79 86 1
E 79 87 1
E 80 85 1
E 80 86 6
E 81 84 5
E 81 85 1
E 81 87 6
E 82 84 199
E 83 156 9
E 86 88 7
E 87 89 7
E 91 93 7
E 92 94 7
E 96 98 7
E 97 99 7
E 101 103 7
E 102 104 7
E 106 108 7
E 107 109 7
E 111 113 7
E 112 114 7
E 116 118 7
E 117 119 7
E 121 123 7
E 122 124 7
E 126 128 7
E 127 129 7
E 131 133 7
E 132 134 7
E 136 138 7
E 137 139 7
E 141 144 6
E 142 146 6
E 143 147 6
E 143 153 10
E 144 145 1
E 144 150 6
E 145 146 1
E 145 151 6
E 146 148 2
E 146 154 6
E 149 156 6
E 150 151 1
E 150 160 9
E 151 154 1
E 151 161 9
E 152 158 7
E 154 162 9
E 155 156 1
E 156 157 1
E 158 163 3
E 159 173 7
E 160 161 1
E 160 163 2
E 161 162 1
E 161 164 2
E 162 166 2
E 162 167 2
E 163 164 1
E 163 165 1
E 164 167 1
E 164 168 1
E 165 168 1
E 165 170 2
E 166 171 2
E 167 169 1
E 167 171 2
E 168 169 1
E 168 172 2
E 169 176 2
E 169 177 2
E 170 172 1
E 170 192 10
E 171 175 1
E 171 176 1
E 172 177 1
E 174 180 2
E 174 202 50
E 175 179 1
E 176 179 1
E 176 183 2
E 177 183 2
E 178 181 1
E 178 184 2
E 179 182 1
E 179 186 2
E 180 184 1
E 180 204 50
E 181 185 1
E 181 187 2
E 182 185 1
E 182 188 2
E 183 186 1
E 183 194 10
E 184 187 1
E 184 206 50
E 185 189 2
E 185 190 2
E 186 188 1
E 186 195 10
E 187 189 1
E 187 208 50
E 188 190 1
E 189 191 2
E 189 193 4
E 190 191 2
E 190 196 10
E 191 197 10
E 192 194 4
E 194 195 1
E 196 197 2
E 198 199 1
E 198 200 5
E 199 201 5
E 200 201 1
E 200 202 7
E 201 203 7
E 201 214 41
E 202 203 1
E 202 204 2
E 203 205 2
E 204 205 1
E 204 206 1
E 205 207 1
E 205 216 40
E 206 207 1
E 206 208 1
E 207 209 1
E 207 218 40
E 208 209 1
E 209 210 1
E 210 212 2
E 210 220 40
E 211 212 1
E 211 213 10
E 212 222 40
E 214 215 7
E 215 217 2
E 215 232 44
E 216 217 1
E 216 218 1
E 217 219 1
E 218 219 1
E 218 220 2
E 219 221 2
E 219 237 47
E 220 221 1
E 220 222 2
E 221 223 2
E 222 223 1
E 222 224 5
E 223 225 5
E 224 225 1
E 224 226 5
E 225 227 5
E 226 227 1
E 228 229 1
E 229 230 5
E 230 231 2
E 230 233 7
E 231 234 7
E 232 233 1
E 233 234 2
E 234 235 1
E 235 236 2
E 1 239 1000
E 2 239 1000
E 3 239 1000
E 4 239 1000
E 5 240 1000
E 6 240 1000
E 7 240 1000
E 8 241 1000
E 9 241 1000
E 10 241 1000
E 11 242 1000
E 12 242 1000
E 13 243 1000
E 14 243 1000
E 15 244 1000
E 16 244 1000
E 17 245 1000
E 18 245 1000
E 19 246 1000
E 20 246 1000
E 21 247 1000
E 22 247 1000
E 23 247 1000
E 24 247 1000
E 25 247 1000
E 26 248 1000
E 27 248 1000
E 28 248 1000
E 29 248 1000
E 30 248 1000
E 31 248 1000
E 32 249 1000
E 33 249 1000
E 34 250 1000
E 35 250 1000
E 36 250 1000
E 37 250 1000
E 38 251 1000
E 39 251 1000
E 40 251 1000
E 41 251 1000
E 42 252 1000
E 43 252 1000
E 44 252 1000
E 45 252 1000
E 46 253 1000
E 47 253 1000
E 48 253 1000
E 49 253 1000
E 50 254 1000
E 51 254 1000
E 52 254 1000
E 53 254 1000
E 54 255 1000
E 55 255 1000
E 56 255 1000
E 57 255 1000
E 58 256 1000
E 59 256 1000
E 60 256 1000
E 61 256 1000
E 62 257 1000
E 63 257 1000
E 64 257 1000
E 65 257 1000
E 66 258 1000
E 67 258 1000
E 68 258 1000
E 69 258 1000
E 70 259 1000
E 71 259 1000
E 72 259 1000
E 73 259 1000
E 74 260 1000
E 75 260 1000
E 76 260 1000
E 77 260 1000
E 78 261 1000
E 79 261 1000
E 80 261 1000
E 81 261 1000
E 82 262 1000
E 83 248 1000
END

SECTION StochasticProbabilities
SP 0.19650 0.21430 0.21430 0.17850 0.19640
END

SECTION StochasticWeights
SE 2 2 2 2 2 
SE 2 2 2 2 2 
SE 10 10 10 10 10 
SE 56 55 63 54 54 
SE 7 7 7 7 7 
SE 54 57 55 52 54 
SE 10 10 10 10 11 
SE 2 2 2 2 2 
SE 4 4 4 4 4 
SE 12 12 12 11 12 
SE 8 8 8 8 9 
SE 4 4 4 4 4 
SE 4 4 4 4 4 
SE 9 8 8 9 8 
SE 4 4 4 4 4 
SE 13 12 13 11 12 
SE 2 2 2 2 2 
SE 13 11 11 11 11 
SE 4 4 4 4 4 
SE 4 4 4 4 4 
SE 2 2 2 2 2 
SE 7 7 7 7 7 
SE 52 54 51 59 56 
SE 2 2 2 2 2 
SE 2 2 2 2 2 
SE 3 3 3 3 3 
SE 12 12 11 11 11 
SE 2 2 2 2 2 
SE 50 48 45 45 49 
SE 12 11 11 11 12 
SE 5 5 5 5 5 
SE 3 3 3 3 3 
SE 53 57 56 53 51 
SE 5 5 5 5 5 
SE 51 51 55 56 58 
SE 3 3 3 3 3 
SE 2 2 2 2 2 
SE 2 2 2 2 2 
SE 2 2 2 2 2 
SE 11 13 12 11 11 
SE 2 2 2 2 2 
SE 2 2 2 2 2 
SE 13 13 12 12 13 
SE 9 8 8 9 9 
SE 4 4 4 4 4 
SE 9 8 8 9 8 
SE 2 2 2 2 2 
SE 4 4 4 4 4 
SE 8 9 8 8 8 
SE 13 12 13 12 13 
SE 7 7 7 7 7 
SE 2 2 2 2 2 
SE 2 2 2 2 2 
SE 3 3 3 3 3 
SE 56 50 58 54 50 
SE 3 3 3 3 3 
SE 3 3 3 3 3 
SE 2 2 2 2 2 
SE 2 2 2 2 2 
SE 54 57 51 49 51 
SE 6 6 6 6 6 
SE 2 2 2 2 2 
SE 8 8 9 9 9 
SE 2 2 2 2 2 
SE 8 8 8 9 8 
SE 2 2 2 2 2 
SE 2 2 2 2 2 
SE 7 7 7 7 7 
SE 2 2 2 2 2 
SE 7 7 7 7 7 
SE 65 66 66 59 60 
SE 2 2 2 2 2 
SE 11 10 11 10 10 
SE 2 2 2 2 2 
SE 3 3 3 3 3 
SE 2 2 2 2 2 
SE 10 10 10 10 10 
SE 2 2 2 2 2 
SE 3 3 3 3 3 
SE 7 7 7 7 7 
SE 3 3 3 3 3 
SE 2 2 2 2 2 
SE 10 11 10 10 11 
SE 3 3 3 3 3 
SE 8 8 8 8 8 
SE 58 65 57 57 65 
SE 49 50 51 47 46 
SE 6 6 6 6 6 
SE 53 53 52 54 57 
SE 45 51 47 44 47 
SE 2 2 2 2 2 
SE 3 3 3 3 3 
SE 8 8 8 8 9 
SE 2 2 2 2 2 
SE 2 2 2 2 2 
SE 7 7 7 7 7 
SE 6 6 6 6 6 
SE 2 2 2 2 2 
SE 2 2 2 2 2 
SE 7 7 7 7 7 
SE 7 7 7 7 7 
SE 2 2 2 2 2 
SE 6 6 6 6 6 
SE 7 7 7 7 7 
SE 2 2 2 2 2 
SE 6 6 6 6 6 
SE 8 8 9 8 8 
SE 2 2 2 2 2 
SE 2 2 2 2 2 
SE 6 6 6 6 6 
SE 7 7 7 7 7 
SE 2 2 2 2 2 
SE 2 2 2 2 2 
SE 6 6 6 6 6 
SE 2 2 2 2 2 
SE 7 7 7 7 7 
SE 6 6 6 6 6 
SE 2 2 2 2 2 
SE 7 7 7 7 7 
SE 8 8 9 8 8 
SE 2 2 2 2 2 
SE 2 2 2 2 2 
SE 7 7 7 7 7 
SE 6 6 6 6 6 
SE 2 2 2 2 2 
SE 2 2 2 2 2 
SE 7 7 7 7 7 
SE 2 2 2 2 2 
SE 6 6 6 6 6 
SE 7 7 7 7 7 
SE 2 2 2 2 2 
SE 6 6 6 6 6 
SE 8 9 8 8 9 
SE 2 2 2 2 2 
SE 2 2 2 2 2 
SE 6 6 6 6 6 
SE 7 7 7 7 7 
SE 2 2 2 2 2 
SE 2 2 2 2 2 
SE 6 6 6 6 6 
SE 2 2 2 2 2 
SE 7 7 7 7 7 
SE 6 6 6 6 6 
SE 2 2 2 2 2 
SE 7 7 7 7 7 
SE 8 8 8 8 9 
SE 2 2 2 2 2 
SE 2 2 2 2 2 
SE 7 7 7 7 7 
SE 6 6 6 6 6 
SE 2 2 2 2 2 
SE 2 2 2 2 2 
SE 7 7 7 7 7 
SE 2 2 2 2 2 
SE 6 6 6 6 6 
SE 7 7 7 7 7 
SE 2 2 2 2 2 
SE 6 6 6 6 6 
SE 8 8 9 8 8 
SE 2 2 2 2 2 
SE 2 2 2 2 2 
SE 6 6 6 6 6 
SE 7 7 7 7 7 
SE 2 2 2 2 2 
SE 2 2 2 2 2 
SE 6 6 6 6 6 
SE 2 2 2 2 2 
SE 7 7 7 7 7 
SE 6 6 6 6 6 
SE 2 2 2 2 2 
SE 7 7 7 7 7 
SE 8 8 9 8 9 
SE 2 2 2 2 2 
SE 2 2 2 2 2 
SE 7 7 7 7 7 
SE 6 6 6 6 6 
SE 2 2 2 2 2 
SE 2 2 2 2 2 
SE 7 7 7 7 7 
SE 2 2 2 2 2 
SE 6 6 6 6 6 
SE 7 7 7 7 7 
SE 2 2 2 2 2 
SE 6 6 6 6 6 
SE 8 8 9 8 9 
SE 2 2 2 2 2 
SE 2 2 2 2 2 
SE 6 6 6 6 6 
SE 7 7 7 7 7 
SE 2 2 2 2 2 
SE 2 2 2 2 2 
SE 6 6 6 6 6 
SE 2 2 2 2 2 
SE 7 7 7 7 7 
SE 6 6 6 6 6 
SE 2 2 2 2 2 
SE 7 7 7 7 7 
SE 8 8 8 8 9 
SE 2 2 2 2 2 
SE 2 2 2 2 2 
SE 7 7 7 7 7 
SE 6 6 6 6 6 
SE 2 2 2 2 2 
SE 2 2 2 2 2 
SE 7 7 7 7 7 
SE 2 2 2 2 2 
SE 6 6 6 6 6 
SE 7 7 7 7 7 
SE 2 2 2 2 2 
SE 6 6 6 6 6 
SE 9 9 9 8 9 
SE 2 2 2 2 2 
SE 2 2 2 2 2 
SE 6 6 6 6 6 
SE 7 7 7 7 7 
SE 2 2 2 2 2 
SE 2 2 2 2 2 
SE 6 6 6 6 6 
SE 2 2 2 2 2 
SE 7 7 7 7 7 
SE 6 6 6 6 6 
SE 2 2 2 2 2 
SE 7 7 7 7 7 
SE 8 8 8 8 8 
SE 2 2 2 2 2 
SE 2 2 2 2 2 
SE 7 7 7 7 7 
SE 6 6 6 6 6 
SE 2 2 2 2 2 
SE 2 2 2 2 2 
SE 7 7 7 7 7 
SE 2 2 2 2 2 
SE 6 6 6 6 6 
SE 7 7 7 7 7 
SE 2 2 2 2 2 
SE 6 6 6 6 6 
SE 2 2 2 2 2 
SE 6 6 6 6 6 
SE 7 7 7 7 7 
SE 2 2 2 2 2 
SE 2 2 2 2 2 
SE 2 2 2 2 2 
SE 7 7 7 7 7 
SE 6 6 6 6 6 
SE 2 2 2 2 2 
SE 7 7 7 7 7 
SE 258 257 226 249 250 
SE 10 11 10 10 10 
SE 8 8 8 8 9 
SE 8 9 8 8 9 
SE 8 8 8 8 8 
SE 9 9 8 8 8 
SE 9 8 8 8 9 
SE 8 8 8 8 9 
SE 8 8 8 8 8 
SE 8 8 9 9 9 
SE 8 9 8 9 8 
SE 9 8 8 8 8 
SE 8 9 9 8 9 
SE 8 8 9 9 8 
SE 8 8 8 8 8 
SE 8 8 9 8 8 
SE 9 9 9 8 8 
SE 8 8 8 9 8 
SE 8 8 9 8 8 
SE 9 8 9 9 8 
SE 9 9 9 8 9 
SE 9 8 8 8 8 
SE 9 9 8 8 9 
SE 8 8 9 8 9 
SE 7 7 7 7 7 
SE 7 7 7 7 7 
SE 7 7 7 7 7 
SE 12 12 11 13 12 
SE 2 2 2 2 2 
SE 7 7 7 7 7 
SE 2 2 2 2 2 
SE 7 7 7 7 7 
SE 3 3 3 3 3 
SE 7 7 7 7 7 
SE 7 7 7 7 7 
SE 2 2 2 2 2 
SE 11 11 11 11 10 
SE 2 2 2 2 2 
SE 11 10 10 11 10 
SE 9 8 8 8 9 
SE 10 10 10 10 10 
SE 2 2 2 2 2 
SE 2 2 2 2 2 
SE 4 4 4 4 4 
SE 8 9 8 8 8 
SE 2 2 2 2 2 
SE 3 3 3 3 3 
SE 2 2 2 2 2 
SE 3 3 3 3 3 
SE 3 3 3 3 3 
SE 3 3 3 3 3 
SE 2 2 2 2 2 
SE 2 2 2 2 2 
SE 2 2 2 2 2 
SE 2 2 2 2 2 
SE 2 2 2 2 2 
SE 3 3 3 3 3 
SE 3 3 3 3 3 
SE 2 2 2 2 2 
SE 3 3 3 3 3 
SE 2 2 2 2 2 
SE 3 3 3 3 3 
SE 3 3 3 3 3 
SE 3 3 3 3 3 
SE 2 2 2 2 2 
SE 12 12 13 11 13 
SE 2 2 2 2 2 
SE 2 2 2 2 2 
SE 2 2 2 2 2 
SE 3 3 3 3 3 
SE 60 56 59 65 65 
SE 2 2 2 2 2 
SE 2 2 2 2 2 
SE 3 3 3 3 3 
SE 3 3 3 3 3 
SE 2 2 2 2 2 
SE 3 3 3 3 3 
SE 2 2 2 2 2 
SE 3 3 3 3 3 
SE 2 2 2 2 2 
SE 61 65 65 60 57 
SE 2 2 2 2 2 
SE 3 3 3 3 3 
SE 2 2 2 2 2 
SE 3 3 3 3 3 
SE 2 2 2 2 2 
SE 12 12 13 12 11 
SE 2 2 2 2 2 
SE 56 62 56 63 61 
SE 3 3 3 3 3 
SE 3 3 3 3 3 
SE 2 2 2 2 2 
SE 12 12 13 13 12 
SE 2 2 2 2 2 
SE 56 64 61 57 60 
SE 2 2 2 2 2 
SE 3 3 3 3 3 
SE 5 5 5 5 5 
SE 3 3 3 3 3 
SE 12 12 13 12 11 
SE 13 12 12 13 12 
SE 5 5 5 5 5 
SE 2 2 2 2 2 
SE 3 3 3 3 3 
SE 2 2 2 2 2 
SE 6 6 6 6 6 
SE 6 6 6 6 6 
SE 2 2 2 2 2 
SE 8 8 9 8 9 
SE 8 8 9 9 9 
SE 50 46 48 53 49 
SE 2 2 2 2 2 
SE 3 3 3 3 3 
SE 3 3 3 3 3 
SE 2 2 2 2 2 
SE 2 2 2 2 2 
SE 2 2 2 2 2 
SE 51 51 44 48 47 
SE 2 2 2 2 2 
SE 2 2 2 2 2 
SE 2 2 2 2 2 
SE 47 51 48 51 51 
SE 2 2 2 2 2 
SE 2 2 2 2 2 
SE 3 3 3 3 3 
SE 46 45 44 49 49 
SE 2 2 2 2 2 
SE 11 11 11 13 13 
SE 48 45 49 45 49 
SE 8 9 9 8 8 
SE 3 3 3 3 3 
SE 52 54 49 54 52 
SE 2 2 2 2 2 
SE 2 2 2 2 2 
SE 2 2 2 2 2 
SE 2 2 2 2 2 
SE 3 3 3 3 3 
SE 3 3 3 3 3 
SE 57 54 54 57 52 
SE 2 2 2 2 2 
SE 3 3 3 3 3 
SE 3 3 3 3 3 
SE 2 2 2 2 2 
SE 6 6 6 6 6 
SE 6 6 6 6 6 
SE 2 2 2 2 2 
SE 6 6 6 6 6 
SE 6 6 6 6 6 
SE 2 2 2 2 2 
SE 2 2 2 2 2 
SE 6 6 6 6 6 
SE 3 3 3 3 3 
SE 8 9 9 8 8 
SE 8 8 9 9 9 
SE 2 2 2 2 2 
SE 3 3 3 3 3 
SE 2 2 2 2 2 
SE 3 3 3 3 3 
SE 1120 1157 1166 1137 1204 
SE 1113 1133 1134 1218 1247 
SE 1276 1271 1161 1249 1190 
SE 1230 1214 1155 1240 1183 
SE 1262 1136 1254 1259 1135 
SE 1262 1105 1134 1240 1159 
SE 1190 1230 1278 1139 1101 
SE 1240 1185 1128 1110 1283 
SE 1285 1250 1127 1240 1271 
SE 1115 1133 1105 1155 1241 
SE 1190 1283 1191 1279 1281 
SE 1235 1122 1258 1228 1181 
SE 1161 1138 1124 1110 1111 
SE 1130 1241 1145 1264 1184 
SE 1149 1296 1211 1154 1250 
SE 1283 1218 1250 1293 1249 
SE 1285 1134 1287 1260 1256 
SE 1227 1289 1127 1221 1237 
SE 1222 1294 1234 1209 1255 
SE 1103 1113 1282 1295 1136 
SE 1173 1178 1137 1130 1110 
SE 1124 1134 1229 1182 1269 
SE 1249 1161 1222 1197 1135 
SE 1152 1224 1148 1115 1235 
SE 1288 1208 1281 1188 1279 
SE 1112 1238 1251 1187 1124 
SE 1219 1250 1112 1133 1218 
SE 1107 1119 1103 1161 1293 
SE 1164 1109 1254 1115 1182 
SE 1283 1249 1180 1112 1185 
SE 1249 1237 1167 1279 1122 
SE 1184 1116 1119 1102 1286 
SE 1296 1282 1165 1180 1131 
SE 1174 1207 1178 1177 1212 
SE 1114 1231 1124 1243 1119 
SE 1257 1117 1118 1290 1166 
SE 1136 1212 1213 1116 1221 
SE 1154 1110 1101 1282 1271 
SE 1146 1153 1297 1300 1299 
SE 1271 1111 1190 1206 1141 
SE 1169 1143 1257 1287 1162 
SE 1187 1135 1138 1279 1230 
SE 1155 1285 1147 1285 1223 
SE 1180 1131 1282 1297 1173 
SE 1217 1276 1183 1192 1264 
SE 1204 1230 1208 1138 1122 
SE 1112 1250 1181 1239 1122 
SE 1201 1260 1119 1102 1219 
SE 1281 1218 1235 1209 1259 
SE 1234 1243 1266 1299 1277 
SE 1154 1273 1101 1297 1256 
SE 1153 1296 1273 1239 1219 
SE 1258 1228 1194 1130 1195 
SE 1102 1133 1223 1143 1241 
SE 1206 1169 1271 1205 1104 
SE 1245 1135 1124 1219 1123 
SE 1265 1271 1124 1180 1265 
SE 1275 1269 1284 1188 1222 
SE 1253 1104 1127 1230 1266 
SE 1129 1281 1228 1195 1297 
SE 1257 1217 1113 1150 1106 
SE 1151 1241 1144 1158 1288 
SE 1213 1297 1247 1198 1283 
SE 1203 1148 1128 1230 1288 
SE 1176 1298 1223 1235 1199 
SE 1177 1177 1271 1291 1252 
SE 1109 1166 1298 1219 1104 
SE 1212 1210 1286 1252 1271 
SE 1232 1188 1222 1272 1222 
SE 1156 1219 1294 1169 1253 
SE 1132 1171 1175 1107 1111 
SE 1251 1181 1129 1258 1284 
SE 1193 1204 1131 1298 1182 
SE 1187 1155 1172 1292 1184 
SE 1131 1213 1110 1205 1107 
SE 1109 1129 1165 1189 1296 
SE 1292 1285 1230 1130 1206 
SE 1294 1162 1141 1294 1129 
SE 1161 1289 1184 1191 1215 
SE 1222 1152 1164 1239 1165 
SE 1178 1255 1106 1292 1256 
SE 1165 1261 1185 1137 1120 
SE 1276 1298 1287 1178 1284 
END

SECTION StochasticTerminals
ST 1 0 0 0 0 0 
ST 2 0 0 0 0 0 
ST 3 0 0 0 0 0 
ST 4 0 0 0 0 0 
ST 5 0 0 0 0 0 
ST 6 1 0 0 0 1 
ST 7 0 0 0 0 0 
ST 8 0 0 0 0 0 
ST 9 0 0 0 0 0 
ST 10 1 0 0 0 0 
ST 11 1 0 1 0 0 
ST 12 1 0 0 0 0 
ST 13 0 0 0 0 0 
ST 14 0 0 0 0 0 
ST 15 0 0 0 0 0 
ST 16 0 0 0 0 0 
ST 17 0 0 0 0 0 
ST 18 0 1 0 0 0 
ST 19 0 0 0 0 0 
ST 20 0 0 0 0 0 
ST 21 0 0 1 0 0 
ST 22 0 0 0 1 0 
ST 23 0 0 0 0 0 
ST 24 0 0 0 0 0 
ST 25 0 0 0 0 0 
ST 26 0 0 0 0 0 
ST 27 0 0 0 0 0 
ST 28 0 0 0 0 0 
ST 29 0 0 0 0 0 
ST 30 1 0 0 0 0 
ST 31 0 0 0 0 0 
ST 32 0 0 0 0 0 
ST 33 0 0 0 0 0 
ST 34 0 0 0 0 0 
ST 35 0 0 0 0 0 
ST 36 0 0 0 0 0 
ST 37 1 0 0 1 0 
ST 38 0 0 0 0 1 
ST 39 0 0 0 0 0 
ST 40 0 0 0 0 0 
ST 41 0 0 0 0 0 
ST 42 0 0 0 1 0 
ST 43 0 0 0 1 0 
ST 44 0 0 0 0 0 
ST 45 0 0 0 0 1 
ST 46 0 0 0 0 0 
ST 47 0 0 0 0 0 
ST 48 0 0 0 1 0 
ST 49 0 0 0 1 0 
ST 50 0 0 0 0 0 
ST 51 0 0 0 0 0 
ST 52 0 0 0 0 0 
ST 53 0 0 0 0 0 
ST 54 0 0 0 0 0 
ST 55 0 1 0 0 0 
ST 56 0 0 0 0 0 
ST 57 0 0 0 0 0 
ST 58 0 0 0 0 0 
ST 59 0 0 0 1 0 
ST 60 0 0 1 0 0 
ST 61 0 0 0 0 0 
ST 62 0 0 0 0 0 
ST 63 0 0 0 0 0 
ST 64 0 0 0 0 0 
ST 65 0 0 0 0 0 
ST 66 0 0 1 0 0 
ST 67 0 0 1 0 0 
ST 68 0 0 0 0 0 
ST 69 0 0 0 0 0 
ST 70 1 0 0 0 0 
ST 71 0 0 0 0 0 
ST 72 0 0 0 0 0 
ST 73 0 0 0 0 0 
ST 74 0 0 0 0 0 
ST 75 0 0 0 0 0 
ST 76 0 0 0 0 0 
ST 77 0 0 1 0 1 
ST 78 0 0 0 1 0 
ST 79 0 0 0 0 0 
ST 80 0 0 0 0 0 
ST 81 0 0 0 0 0 
ST 82 1 0 0 0 0 
ST 83 0 0 0 0 0 
ST 84 0 1 0 0 0 
ST 85 0 0 0 0 0 
ST 86 0 0 0 0 0 
ST 87 0 0 0 0 0 
ST 88 0 0 1 0 0 
ST 89 0 0 0 0 0 
ST 90 0 0 0 1 0 
ST 91 0 0 0 0 0 
ST 92 0 0 0 0 0 
ST 93 0 0 0 0 0 
ST 94 0 0 0 0 0 
ST 95 0 0 0 0 0 
ST 96 0 0 0 0 0 
ST 97 0 0 0 0 0 
ST 98 0 0 0 0 0 
ST 99 0 0 1 0 0 
ST 100 0 0 0 0 0 
ST 101 0 0 0 0 0 
ST 102 0 0 0 0 0 
ST 103 0 0 0 0 0 
ST 104 0 0 0 0 0 
ST 105 0 0 0 0 0 
ST 106 1 0 0 0 0 
ST 107 0 0 0 0 0 
ST 108 0 0 0 0 0 
ST 109 0 0 0 0 0 
ST 110 0 0 0 0 0 
ST 111 0 0 0 0 0 
ST 112 0 0 0 0 0 
ST 113 0 0 0 0 0 
ST 114 0 0 0 0 0 
ST 115 0 0 0 0 0 
ST 116 0 0 0 0 0 
ST 117 0 1 0 0 0 
ST 118 0 0 0 0 0 
ST 119 1 1 0 0 0 
ST 120 0 0 0 0 0 
ST 121 0 1 1 0 0 
ST 122 0 0 0 0 0 
ST 123 0 0 0 1 1 
ST 124 0 0 0 0 0 
ST 125 0 0 0 0 0 
ST 126 0 0 0 0 0 
ST 127 0 0 0 0 0 
ST 128 0 0 0 0 0 
ST 129 0 0 0 0 0 
ST 130 0 0 0 0 0 
ST 131 0 0 0 0 0 
ST 132 1 0 0 0 0 
ST 133 0 0 0 0 0 
ST 134 0 1 0 0 0 
ST 135 0 0 0 0 0 
ST 136 0 0 0 0 0 
ST 137 0 0 0 0 0 
ST 138 0 0 0 0 0 
ST 139 0 0 0 0 1 
ST 140 0 0 0 0 1 
ST 141 0 0 0 0 0 
ST 142 0 0 0 0 0 
ST 143 0 0 0 0 1 
ST 144 0 0 0 0 0 
ST 145 0 0 0 0 0 
ST 146 0 0 0 1 0 
ST 147 0 0 0 0 0 
ST 148 0 0 1 0 0 
ST 149 0 0 0 0 0 
ST 150 0 0 0 0 0 
ST 151 0 0 0 1 0 
ST 152 0 0 0 0 0 
ST 153 1 0 0 0 0 
ST 154 0 0 0 1 0 
ST 155 0 0 0 0 0 
ST 156 0 0 0 0 0 
ST 157 0 0 0 0 1 
ST 158 0 0 0 0 0 
ST 159 0 0 0 0 0 
ST 160 0 0 0 0 0 
ST 161 0 0 0 0 0 
ST 162 0 0 1 0 0 
ST 163 0 0 0 0 0 
ST 164 0 0 0 0 0 
ST 165 0 0 0 0 0 
ST 166 0 0 0 0 0 
ST 167 0 0 0 1 0 
ST 168 0 0 0 0 0 
ST 169 0 0 0 0 0 
ST 170 0 0 0 0 0 
ST 171 0 0 0 0 0 
ST 172 0 0 0 0 0 
ST 173 0 0 0 0 0 
ST 174 0 0 0 0 0 
ST 175 0 0 0 0 0 
ST 176 0 0 0 0 0 
ST 177 0 0 0 0 0 
ST 178 0 0 0 0 0 
ST 179 0 0 0 0 0 
ST 180 0 1 0 0 0 
ST 181 0 0 0 0 0 
ST 182 0 0 0 0 0 
ST 183 0 0 0 0 0 
ST 184 0 0 0 0 0 
ST 185 0 0 0 1 0 
ST 186 0 0 0 0 0 
ST 187 0 0 0 1 0 
ST 188 0 0 0 0 0 
ST 189 0 0 0 0 0 
ST 190 1 0 0 0 0 
ST 191 0 0 0 0 0 
ST 192 0 1 0 0 0 
ST 193 0 1 0 0 0 
ST 194 0 0 0 0 0 
ST 195 1 0 0 0 0 
ST 196 0 0 0 0 0 
ST 197 0 0 0 0 0 
ST 198 1 0 0 0 0 
ST 199 0 0 0 0 0 
ST 200 0 0 0 1 0 
ST 201 0 0 0 1 0 
ST 202 0 0 0 0 0 
ST 203 0 0 0 0 0 
ST 204 0 0 0 0 0 
ST 205 0 0 0 0 1 
ST 206 0 0 0 0 0 
ST 207 0 0 0 0 0 
ST 208 0 0 0 0 0 
ST 209 0 0 0 0 0 
ST 210 0 0 1 0 0 
ST 211 0 0 0 0 0 
ST 212 0 0 0 0 0 
ST 213 0 0 0 0 0 
ST 214 0 0 0 1 0 
ST 215 0 0 0 0 0 
ST 216 0 0 0 0 0 
ST 217 0 0 0 0 0 
ST 218 0 0 0 0 0 
ST 219 0 0 1 0 0 
ST 220 1 0 1 0 0 
ST 221 0 0 0 0 0 
ST 222 0 0 0 0 0 
ST 223 0 0 0 0 0 
ST 224 0 0 0 0 0 
ST 225 0 1 0 0 0 
ST 226 0 0 0 0 0 
ST 227 0 0 0 0 0 
ST 228 0 0 0 0 0 
ST 229 0 0 0 0 0 
ST 230 0 1 0 0 0 
ST 231 0 0 0 0 0 
ST 232 0 0 0 0 0 
ST 233 1 0 0 0 0 
ST 234 1 0 0 0 0 
ST 235 0 0 0 0 0 
ST 236 0 1 0 0 0 
ST 237 0 0 0 0 0 
ST 238 0 1 0 0 0 
ST 239 0 0 0 0 0 
ST 240 0 0 0 0 0 
ST 241 0 0 1 0 0 
ST 242 0 0 1 0 1 
ST 243 1 1 1 0 0 
ST 244 1 1 0 0 0 
ST 245 0 0 1 0 1 
ST 246 0 1 0 0 0 
ST 247 0 0 0 0 1 
ST 248 1 1 1 1 1 
ST 249 0 0 0 0 0 
ST 250 1 1 0 1 0 
ST 251 0 0 0 0 1 
ST 252 0 0 0 1 0 
ST 253 0 0 1 0 0 
ST 254 0 0 1 0 0 
ST 255 0 0 1 0 0 
ST 256 0 0 0 1 1 
ST 257 0 0 0 0 1 
ST 258 0 0 1 1 0 
ST 259 0 0 0 0 0 
ST 260 1 1 0 0 1 
ST 261 0 0 1 0 0 
ST 262 0 0 1 1 0 
END


SECTION Coordinates
DD 1 16449 14540
DD 2 16464 14540
DD 3 16458 14539
DD 4 16458 14543
DD 5 16453 14388
DD 6 16463 14388
DD 7 16464 14391
DD 8 16453 14365
DD 9 16463 14365
DD 10 16464 14368
DD 11 16451 14450
DD 12 16463 14451
DD 13 16453 14404
DD 14 16463 14404
DD 15 16450 14397
DD 16 16463 14397
DD 17 16453 14381
DD 18 16463 14381
DD 19 16450 14374
DD 20 16463 14374
DD 21 16433 14537
DD 22 16448 14537
DD 23 16448 14539
DD 24 16439 14536
DD 25 16439 14540
DD 26 16433 14396
DD 27 16433 14398
DD 28 16448 14396
DD 29 16448 14398
DD 30 16439 14395
DD 31 16439 14400
DD 32 16434 14492
DD 33 16446 14491
DD 34 16416 14392
DD 35 16427 14392
DD 36 16422 14391
DD 37 16422 14393
DD 38 16398 14392
DD 39 16409 14392
DD 40 16403 14391
DD 41 16403 14393
DD 42 16380 14392
DD 43 16391 14392
DD 44 16386 14391
DD 45 16386 14393
DD 46 16362 14392
DD 47 16373 14392
DD 48 16367 14391
DD 49 16367 14393
DD 50 16344 14392
DD 51 16355 14392
DD 52 16350 14391
DD 53 16350 14393
DD 54 16326 14392
DD 55 16337 14392
DD 56 16331 14391
DD 57 16331 14393
DD 58 16308 14392
DD 59 16319 14392
DD 60 16314 14391
DD 61 16314 14393
DD 62 16290 14392
DD 63 16301 14392
DD 64 16295 14391
DD 65 16295 14393
DD 66 16272 14392
DD 67 16283 14392
DD 68 16278 14391
DD 69 16278 14393
DD 70 16254 14392
DD 71 16265 14392
DD 72 16259 14391
DD 73 16259 14393
DD 74 16236 14392
DD 75 16247 14392
DD 76 16242 14391
DD 77 16242 14393
DD 78 16218 14392
DD 79 16229 14392
DD 80 16223 14391
DD 81 16223 14393
DD 82 16217 14591
DD 83 16448 14397
DD 84 16218 14393
DD 85 16223 14392
DD 86 16229 14391
DD 87 16229 14393
DD 88 16236 14391
DD 89 16236 14393
DD 90 16242 14392
DD 91 16247 14391
DD 92 16247 14393
DD 93 16254 14391
DD 94 16254 14393
DD 95 16259 14392
DD 96 16265 14391
DD 97 16265 14393
DD 98 16272 14391
DD 99 16272 14393
DD 100 16278 14392
DD 101 16283 14391
DD 102 16283 14393
DD 103 16290 14391
DD 104 16290 14393
DD 105 16295 14392
DD 106 16301 14391
DD 107 16301 14393
DD 108 16308 14391
DD 109 16308 14393
DD 110 16314 14392
DD 111 16319 14391
DD 112 16319 14393
DD 113 16326 14391
DD 114 16326 14393
DD 115 16331 14392
DD 116 16337 14391
DD 117 16337 14393
DD 118 16344 14391
DD 119 16344 14393
DD 120 16350 14392
DD 121 16355 14391
DD 122 16355 14393
DD 123 16362 14391
DD 124 16362 14393
DD 125 16367 14392
DD 126 16373 14391
DD 127 16373 14393
DD 128 16380 14391
DD 129 16380 14393
DD 130 16386 14392
DD 131 16391 14391
DD 132 16391 14393
DD 133 16398 14391
DD 134 16398 14393
DD 135 16403 14392
DD 136 16409 14391
DD 137 16409 14393
DD 138 16416 14391
DD 139 16416 14393
DD 140 16422 14392
DD 141 16427 14391
DD 142 16427 14393
DD 143 16453 14368
DD 144 16433 14391
DD 145 16433 14392
DD 146 16433 14393
DD 147 16453 14374
DD 148 16433 14395
DD 149 16433 14397
DD 150 16439 14391
DD 151 16439 14392
DD 152 16450 14381
DD 153 16463 14368
DD 154 16439 14393
DD 155 16439 14396
DD 156 16439 14397
DD 157 16439 14398
DD 158 16450 14388
DD 159 16464 14374
DD 160 16448 14391
DD 161 16448 14392
DD 162 16448 14393
DD 163 16450 14391
DD 164 16450 14392
DD 165 16451 14391
DD 166 16448 14395
DD 167 16450 14393
DD 168 16451 14392
DD 169 16451 14393
DD 170 16453 14391
DD 171 16450 14395
DD 172 16453 14392
DD 173 16464 14381
DD 174 16446 14400
DD 175 16450 14396
DD 176 16451 14395
DD 177 16453 14393
DD 178 16449 14398
DD 179 16451 14396
DD 180 16448 14400
DD 181 16450 14398
DD 182 16451 14397
DD 183 16453 14395
DD 184 16449 14400
DD 185 16451 14398
DD 186 16453 14396
DD 187 16450 14400
DD 188 16453 14397
DD 189 16451 14400
DD 190 16453 14398
DD 191 16453 14400
DD 192 16463 14391
DD 193 16451 14404
DD 194 16463 14395
DD 195 16463 14396
DD 196 16463 14398
DD 197 16463 14400
DD 198 16434 14450
DD 199 16434 14451
DD 200 16439 14450
DD 201 16439 14451
DD 202 16446 14450
DD 203 16446 14451
DD 204 16448 14450
DD 205 16448 14451
DD 206 16449 14450
DD 207 16449 14451
DD 208 16450 14450
DD 209 16450 14451
DD 210 16451 14451
DD 211 16453 14450
DD 212 16453 14451
DD 213 16463 14450
DD 214 16439 14492
DD 215 16446 14492
DD 216 16448 14491
DD 217 16448 14492
DD 218 16449 14491
DD 219 16449 14492
DD 220 16451 14491
DD 221 16451 14492
DD 222 16453 14491
DD 223 16453 14492
DD 224 16458 14491
DD 225 16458 14492
DD 226 16463 14491
DD 227 16463 14492
DD 228 16434 14536
DD 229 16434 14537
DD 230 16439 14537
DD 231 16439 14539
DD 232 16446 14536
DD 233 16446 14537
DD 234 16446 14539
DD 235 16446 14540
DD 236 16448 14540
DD 237 16449 14539
DD 238 16458 14540
DD 239 16449 14540
DD 240 16464 14540
DD 241 16458 14539
DD 242 16458 14543
DD 243 16453 14388
DD 244 16463 14388
DD 245 16464 14391
DD 246 16453 14365
DD 247 16463 14365
DD 248 16464 14368
DD 249 16451 14450
DD 250 16463 14451
DD 251 16453 14404
DD 252 16463 14404
DD 253 16450 14397
DD 254 16463 14397
DD 255 16453 14381
DD 256 16463 14381
DD 257 16450 14374
DD 258 16463 14374
DD 259 16433 14537
DD 260 16448 14537
DD 261 16448 14539
DD 262 16439 14536
END

EOF
